0 0 0 0
0 1 0 0
0 2 0 0
0 3 1 2
0 4 0 7
0 5 1 1
0 6 1 4
0 7 0 11
0 8 1 4
0 9 0 12
0 10 2 1
0 11 0 11
0 12 0 9
0 13 0 14
0 14 1 16
0 15 1 12
0 16 0 1
0 17 1 14
0 18 0 20
0 19 0 19
0 20 0 24
0 21 1 20
0 22 0 12
0 23 0 14
0 24 0 20
0 25 0 26
0 26 1 21
0 27 0 29
0 28 2 24
0 29 0 32
0 30 1 29
0 31 0 35
